000 000 000 000 000 000 000 000 000 000 001 001 000 -99 000 -99 000 000 -99 -99 -99 000 000 -99 000 000 000 -99 -99 -99 -99
000 000 000 000 000 000 000 000 -99 000 000 001 -99 -99 000 000 000 000 -99 -99 -99 000 000 000 000 000 -99 -99 -99 -99 -99
000 000 000 001 000 000 000 000 -99 -99 -99 -99 -99 -99 000 000 000 -99 -99 -99 -99 000 000 000 000 000 000 000 -99 -99 -99
000 000 000 000 001 000 000 000 000 -99 -99 -99 -99 -99 000 000 000 -99 -99 -99 -99 -99 000 000 000 000 000 000 -99 -99 -99
000 000 000 000 000 000 000 000 000 000 -99 -99 000 000 000 -99 000 -99 -99 -99 000 000 000 000 000 000 -99 -99 -99 -99 -99
000 000 000 000 000 000 000 000 000 000 -99 -99 000 000 000 000 000 -99 -99 -99 000 000 000 000 000 -99 -99 -99 -99 -99 000
000 000 000 000 000 000 000 000 000 000 000 000 -99 000 000 000 000 000 -99 -99 000 000 -99 000 000 -99 -99 -99 -99 -99 -99
000 000 000 000 000 000 000 000 000 000 000 000 -99 -99 000 000 000 000 000 -99 -99 000 000 000 000 -99 -99 -99 -99 -99 -99
000 000 000 000 000 000 000 000 000 000 000 000 000 -99 000 000 000 000 000 -99 -99 -99 -99 000 000 -99 -99 -99 -99 -99 -99
000 000 000 000 000 000 000 000 000 000 000 000 000 -99 000 000 000 000 000 000 -99 000 -99 -99 000 000 -99 -99 -99 -99 -99
000 000 000 000 000 000 000 000 000 000 000 000 000 000 -99 000 -99 000 000 000 -99 000 -99 -99 -99 -99 -99 -99 -99 000 -99
000 000 000 000 000 000 000 000 000 000 000 000 000 -99 -99 000 000 000 000 000 -99 000 -99 000 000 -99 000 000 -99 000 000
000 000 000 000 000 000 000 000 000 000 000 000 000 -99 -99 000 000 000 000 000 -99 000 -99 -99 000 000 -99 000 -99 -99 000
000 000 000 000 000 000 000 000 000 000 000 000 000 -99 -99 -99 000 -99 000 000 000 000 -99 -99 000 000 -99 000 000 -99 -99
000 000 000 000 000 000 000 000 000 000 000 000 000 000 000 -99 -99 000 000 000 000 000 -99 000 000 -99 -99 000 000 -99 -99
000 000 000 000 000 000 000 000 000 000 000 000 -99 000 000 -99 000 000 000 000 000 000 -99 000 000 -99 -99 000 000 -99 -99
000 -99 000 000 000 000 000 000 000 000 000 000 000 000 000 000 000 000 000 000 000 -99 000 000 000 -99 -99 -99 000 000 -99
000 000 000 000 000 000 000 000 000 000 000 000 -99 -99 000 000 000 000 000 000 000 000 000 000 000 -99 -99 -99 000 000 -99
000 000 000 000 -99 000 000 000 000 000 000 000 000 -99 000 000 000 000 000 000 000 000 000 -99 000 -99 -99 -99 -99 000 -99
000 000 000 000 000 000 000 000 000 000 000 000 000 -99 000 000 000 000 000 000 000 000 000 -99 000 -99 -99 -99 -99 000 -99
000 000 000 000 000 000 000 000 000 000 000 000 000 000 000 000 000 000 000 000 000 000 000 -99 -99 -99 -99 -99 -99 -99 -99
000 000 000 000 000 000 000 000 000 000 000 000 000 000 000 000 000 000 000 000 000 000 000 -99 -99 -99 -99 -99 -99 -99 -99
000 000 000 000 000 000 000 000 000 000 000 000 000 000 000 000 000 000 000 000 000 000 000 -99 -99 -99 -99 -99 -99 -99 -99
000 000 000 000 000 000 000 000 000 000 000 000 000 000 000 000 000 000 000 000 000 000 000 -99 -99 -99 -99 -99 -99 -99 -99
000 000 000 000 000 000 000 000 000 000 000 000 000 000 000 000 000 000 000 000 000 000 000 -99 -99 -99 -99 -99 -99 -99 -99
000 000 000 000 000 000 000 000 000 000 000 000 000 000 000 000 000 000 000 000 000 000 000 -99 -99 -99 -99 -99 -99 -99 000
000 000 000 000 000 000 000 000 000 000 000 000 000 000 000 000 000 000 000 000 000 000 000 -99 -99 -99 -99 -99 -99 -99 000
000 000 000 000 000 000 000 000 000 000 000 000 000 000 000 000 000 000 000 000 000 000 000 -99 -99 -99 -99 -99 -99 -99 000
000 000 000 000 000 000 000 000 000 000 000 000 000 000 000 000 000 000 000 000 000 000 -99 -99 -99 -99 -99 -99 -99 -99 -99
000 000 000 000 000 000 000 000 000 000 000 000 000 000 000 000 000 000 000 000 000 000 -99 -99 -99 -99 -99 -99 -99 -99 -99
000 000 000 000 000 000 000 000 000 000 000 000 000 000 000 000 000 000 000 000 000 000 000 000 000 -99 -99 -99 -99 -99 -99
000 000 000 000 000 000 000 000 000 000 000 000 000 000 000 000 000 000 000 000 000 000 000 000 000 000 -99 -99 -99 -99 -99
000 000 000 000 000 000 000 000 000 000 000 000 000 000 000 000 000 000 000 000 000 000 000 000 000 000 -99 000 000 000 000
000 000 000 000 000 000 000 000 000 000 000 000 000 000 000 000 000 000 000 -99 000 000 000 000 000 000 000 000 000 000 000
000 000 000 000 000 000 000 000 000 000 000 000 000 000 000 000 000 000 000 000 000 000 000 000 000 000 000 000 000 000 000
000 000 000 000 000 000 000 000 000 000 000 000 000 000 000 000 000 000 000 000 000 000 000 000 000 000 000 000 000 000 000
000 000 000 000 000 000 000 000 000 000 000 000 000 000 001 001 000 000 000 -99 -99 000 000 000 000 000 000 000 001 000 000
000 000 000 000 000 000 000 000 000 000 000 000 000 000 000 000 000 000 000 000 000 000 000 000 000 000 000 000 000 000 001
000 000 000 000 000 000 000 000 000 000 000 000 000 001 001 000 000 000 000 000 000 000 000 000 000 000 000 000 000 000 001
000 000 000 000 000 000 000 000 000 000 000 001 001 001 001 000 000 000 000 000 000 000 000 000 000 000 001 001 000 000 001
000 000 000 000 000 000 000 000 000 000 000 001 001 002 001 000 001 000 001 000 000 000 000 000 000 000 001 001 000 000 001
000 000 -99 000 000 000 000 000 000 000 001 001 001 002 001 002 001 001 001 000 000 000 000 000 001 002 002 001 001 000 001
000 001 -99 000 000 000 001 001 000 001 001 001 001 002 003 003 001 001 001 001 001 000 000 000 000 001 002 001 000 000 001
001 000 -99 000 000 000 001 001 001 002 002 001 002 002 004 004 002 001 002 003 003 002 000 000 000 001 001 001 001 000 001
000 000 -99 -99 000 000 000 000 001 003 003 003 002 002 005 003 004 002 006 008 007 002 000 000 000 001 003 002 001 001 001
-99 -99 -99 -99 000 000 000 000 000 002 004 003 003 003 003 002 004 004 006 008 011 002 000 000 000 001 002 002 003 003 002
-99 -99 -99 -99 -99 000 000 000 000 000 001 002 002 002 003 003 006 005 006 010 008 002 000 000 000 002 002 003 004 002 003
-99 -99 -99 -99 -99 -99 000 000 000 000 000 001 001 001 002 003 005 009 011 025 029 007 000 000 000 001 003 005 005 002 002
-99 -99 -99 -99 -99 -99 -99 -99 000 000 000 001 001 002 002 003 006 011 034 056 075 075 005 000 000 001 002 005 006 004 002
000 000 000 -99 -99 -99 -99 -99 -99 000 000 000 000 001 001 002 003 023 069 155 152 100 001 000 000 001 001 003 004 003 003
000 000 000 -99 -99 -99 -99 -99 000 000 000 000 000 000 000 001 005 026 143 175 168 026 001 000 000 -99 001 002 003 003 003
000 000 000 -99 -99 -99 -99 -99 000 -99 -99 000 000 000 000 000 005 053 149 239 054 003 000 000 -99 000 001 000 000 001 005
001 000 000 -99 -99 -99 -99 -99 -99 -99 -99 -99 -99 000 000 001 006 032 087 123 014 001 000 000 -99 -99 -99 000 000 001 001
000 000 000 -99 -99 -99 -99 -99 -99 -99 -99 -99 -99 -99 -99 001 002 004 062 009 002 000 000 -99 -99 -99 -99 000 000 000 001
000 000 000 -99 -99 -99 -99 -99 -99 -99 -99 -99 -99 -99 -99 000 000 001 006 001 001 000 000 -99 -99 -99 -99 000 000 001 000
